10J3M/DAT/10J3MUNA-20.dat
10 3
28.7757 828.0409
36.7713 1352.1285
7.4753 55.8801
24.9288 621.4451
43.5049 1892.6763
17.2355 297.0625
25.1526 632.6533
0.5854 0.3427
34.4561 1187.2228
10.1413 102.846
6970.2982