10J3M/SOL/10J3MUNA-20.sol
solution status: optimal solution found
objective value:                     102.453933333333
x#1#2                                               1 	(obj:0)
x#2#3                                               1 	(obj:0)
x#3#1                                               1 	(obj:0)
x#4#1                                               1 	(obj:0)
x#5#1                               0.844784418948009 	(obj:0)
x#5#2                               0.155215581051991 	(obj:0)
x#6#3                                               1 	(obj:0)
x#7#1                                               1 	(obj:0)
x#8#2                               0.383340123801742 	(obj:0)
x#8#3                               0.616659876198257 	(obj:0)
x#9#2                                               1 	(obj:0)
x#10#1                                              1 	(obj:0)
z                                    102.453933333333 	(obj:1)
